\* Przyklad87_STR.142 *\
Minimize
OBJ: 60 x_11 + 640 x_12 + 220 x_13 + 120 x_21 + 320 x_22 + 440 x_23 + 420 x_31
 + 240 x_32 + 220 x_33
Subject To
Supply_Constraints2_0: x_11 + x_12 + x_13 <= 2500
Supply_Constraints2_1: x_21 + x_22 + x_23 <= 2400
Supply_Constraints2_2: x_31 + x_32 + x_33 <= 15000
Bounds
0 <= x_11
0 <= x_12
0 <= x_13
0 <= x_21
0 <= x_22
0 <= x_23
0 <= x_31
0 <= x_32
0 <= x_33
Generals
x_11
x_12
x_13
x_21
x_22
x_23
x_31
x_32
x_33
End
